50 8
624 588
679 389
523 793
848 38
359 833
810 622
700 769
634 802
608 446
255 660
786 187
425 489
424 273
504 556
235 372
853 85
406 225
773 826
809 517
300 272
677 404
304 263
672 904
644 457
722 360
672 241
690 41
325 712
97 541
748 500
637 757
215 417
363 169
669 794
688 361
843 169
443 475
385 800
354 266
234 591
701 901
642 552
762 662
662 130
769 507
408 243
491 417
739 785
249 672
226 580
